molecule mol {
    0   1
    O
    H   1   0.96
    H   1   0.96    2   104.5
}

set {
    basis sto-3g
    e_convergence  10
    scf_type pk
    MAXITER 50
}

# Used to initialize everything
mol.update_geometry()

mints = psi4.MintsHelper()

# Call your restricted Hartree-Fock code here
from rhf import RHF
my_rhf = RHF(mol, mints)

energy = my_rhf.compute_energy()
print(energy)
