set basis cc-pVDZ

molecule h20 {
0 1
O 0.000000 0.000000 -0.134504
H 0.000000 -1.684917 1.067336
H 0.000000 1.684917 1.067336
units bohr
}

energy('scf')