###  H2O
molecule mol {
   0 1
   O 
   H 1 1.1
   H 1 1.1  2  104.0
   }

set {
    reference uhf
    basis sto-3g }

###  libmints
basisname = psi4.get_global_option("BASIS")
basisset = psi4.BasisSet.pyconstruct_orbital(mol,"BASIS",basisname)
mints    = psi4.MintsHelper(basisset)

###  call CCD module
from ccd import CCD
ccd = CCD(mol,mints)
print ccd.get_energy()
