
###  H2O
molecule mol {
   0 1
   O 
   H 1 1.1
   H 1 1.1  2  104.0
   }

set {
    reference uhf
    basis sto-3g }

###  libmints
mints    = psi4.MintsHelper()

###  call CCD module
from ccd import CCD
ccd = CCD(mol,mints)
print ccd.get_energy()
