set basis cc-pVDZ

molecule h20 {
0 1
O 0.040000 0.045000 0.050000
H 0.055000 0.060000 0.050000
H 0.055000 0.060000 0.065000
units bohr
}

energy('scf')