import sys
sys.path.append('.')

molecule mol {
1 2
O
H 1 0.999 
H 1 0.999 2 109.3
}

set { 
basis sto-3g
reference uhf
e_convergence 1.e-10
maxiter 500
scf_type pk
}

energy('scf')
e_uhf = variable('SCF TOTAL ENERGY')

basisname = psi4.core.get_global_option('basis')
basis = psi4.BasisSet.build(mol,'BASIS', basisname)
mints = psi4.MintsHelper(basis)
e_conv = psi4.core.get_global_option('e_convergence')
maxiter = psi4.core.get_global_option('maxiter')

from uhf import UHF

uhf = UHF(mol,mints)
diff = uhf.optimize_energy(e_conv,maxiter,True)
print('PSI4 Final Energy: {:> 20.14f}'.format(e_uhf))
