molecule {
H  0.0  0.0  -0.708647245875
H  0.0  0.0  0.708647245875
units bohr
}

set e_convergence 11
set basis         cc-pVDZ
energy('scf')

