molecule mol {
    1   2
    O
    H   1   0.96
    H   1   0.96    2   104.5
}

set {
    basis sto-3g
    e_convergence  10
    scf_type pk
    MAXITER 50
}

# Used to initialize everything
mol.update_geometry()

mol = psi4.get_active_molecule()
mints = psi4.MintsHelper()

from uhf import UHF
my_uhf = UHF(mol, mints)

energy = my_uhf.compute_energy()
