molecule {
units bohr
O   0.000000000000   0.000000000000  -0.134503695264
H   0.000000000000  -1.684916670000   1.067335684736
H   0.000000000000   1.684916670000   1.067335684736
}

set e_convergence 11
set basis         cc-pVDZ
energy('scf')

