molecule h2o {
O     0.0000000000    0.0000000000   -0.0711762954
H     0.0000000000   -0.8916195680    0.5648097613
H     0.0000000000    0.8916195680    0.5648097613
}

set {
basis cc-pvdz
e_convergence 12
d_convergence 12
}

frequencies('scf')
