molecule h2 {
H          0.000000000000     0.000000000000    -0.375000000000
H          0.000000000000     0.000000000000     0.375000000000
}

set {
    basis cc-pvdz
    e_convergence 12
    d_convergence 12
}

frequencies('scf')
