set basis cc-pVDZ

molecule h20 {
0 1
O 0.040000 0.045000 0.050000
H 0.030000 0.035000 0.040000
H 0.045000 0.050000 0.055000
units bohr
}

energy('scf')