molecule {
units bohr
O     0.0000000000   -0.0050000000   -0.1345036952
H     0.0000000000   -1.6849166700    1.0623356848
H     0.0000000000    1.6849166700    1.0673356848

}

set e_convergence 11
set basis         cc-pVDZ
energy('scf')

