# ground state H2O

molecule mol {
  1 2
  O
  H 1 1.1
  H 1 1.1 2 104.0
}

set {
  reference uhf
  basis sto-3g
  e_convergence 10
  scf_type pk
  mp2_type conv
  maxiter 50
}
# run
basisname = psi4.core.get_global_option("BASIS")
basisset  = psi4.core.BasisSet.build(mol, "BASIS", basisname)
mints     = psi4.core.MintsHelper(basisset)

energy('omp2')

# call spin-orbital UHF code
import sys
sys.path.insert(0, '.')
sys.path.insert(0, '../../../5/avcopan/')
from uhf import UHF
uhf = UHF(mol, mints)
uhf.compute_energy()

# call CCD code here
from omp2 import OMP2
omp2 = OMP2(uhf)
print(omp2.compute_energy())
