set basis cc-pVDZ

molecule h20 {
0 1
O 0.010000 0.010000 0.015000
H 0.000000 -1.684917 1.067336
H 0.000000 1.684917 1.067336
units bohr
}

energy('scf')