molecule h2o {
N
C 1 r1
H 2 r2 1 a1
H 2 r3 1 a2 3 t1

r1 = 1.253338969095741
r2 = 1.095130571925020
r3 = 1.095130571925020
a1 = 121.2134715798538
a2 = 121.2134715798538
t1 = 180.0000000000000
}

set {
	basis cc-pvdz
	scf_type pk
	e_convergence 12
}

energy('scf')
