
###  doublet H2O+
molecule mol {
   1 2
   O 0 0 0 
   H 0 1 0 
   H 0 0 1
   }

set {
    reference rhf
    basis sto-3g
    scf_type pk
    mp2_type conv
    e_convergence 12
	MAXITER 50
    }

###  libmints
basisname = psi4.get_global_option("BASIS")
basisset = psi4.BasisSet.pyconstruct_orbital(mol,"BASIS",basisname)
mints    = psi4.MintsHelper(basisset)

###  Call MP2 code
from cis import CIS
cis = CIS(mol,mints)
print( cis.cis_energies() )
