molecule h2o {
O  
H  1 B1
H  1 B2 2 A2

B1 =       1.09520
B2 =       1.09520
A2 =     109.00000
}

set {
	basis cc-pvdz
	e_convergence 12
	d_convergence 12
}

energy('scf')
