molecule {
O  0.0  0.0  -0.134503695218
H  0.0  -1.68491666995  1.06733568477
H  0.0  1.68491666995  1.06733568477
units bohr
}

set {
    basis cc-pvdz
    e_convergence 12
    d_convergence 12
    }

energy('scf')
