#doublet H2O+

molecule mol {
   O 
   H 1 0.96
   H 1 0.96 2 104.5
   }

set {
    basis sto-3g
    scf_type pk
    e_convergence 12
	 MAXITER 50
    }

Eref = energy('uhf')

# initialize molecule object, integrals library

mol = psi4.get_active_molecule()
mints = psi4.MintsHelper()

# call Hartree-Fock code here
from uhf import UHF

uhf = UHF(mol,mints)
#E = uhf.get_energy()

print Eref
#print E
