set basis cc-pVDZ

molecule h20 {
0 1
O 0.035000 0.010000 0.015000
H 0.020000 0.025000 0.030000
H 0.035000 0.040000 1.067336
units bohr
}

energy('scf')