molecule h2o {
O  
H  1 B1
H  1 B2 2 A2

B1 =    1.095200000000
B2 =    1.092554115000
A2 =  108.713521102445
}

set {
	basis cc-pvdz
	scf_type pk
	e_convergence 12
	freeze_core true
}

energy('scf')
