set basis cc-pVDZ

molecule h20 {
0 1
O 0.040000 0.035000 0.020000
H 0.025000 0.030000 0.035000
H 0.040000 0.040000 0.045000
units bohr
}

energy('scf')