molecule h2 {
H  
H  1 B1

B1 =    0.750000000000
}

set {
	basis cc-pvdz
	scf_type pk
	e_convergence 12
	d_convergence 12
}

energy('scf')
