molecule {
H  0.0  0.0  -0.7036472459
H  0.0  0.0  0.7086472459
units bohr
}

set e_convergence 11
set basis         cc-pVDZ
energy('scf')

