#this will actually call everything

import sys
import psi4.core
sys.path.insert(0,'.')
from juliaanoonan3 import rhf

molecule h2o {
    0 1
    O
    H 1 0.96
    H 1 0.96 2 104.5
}

set basis         sto-3g
set e_convergence 10
set scf_type      pk
set maxiter       50


basisset = psi4.core.BasisSet.build(h2o, "BASIS", "sto-3g")

mints = psi4.core.MintsHelper(basisset)

water = rhf(h2o, mints)
water.toconverge()



